c FILE /home/rafael/Documents/HappySet/MIHS/inputs/happygen/output/graph_d_regular_k4_p0.3_v100_20241127_084029.txt
c SOURCE This is a d-regular graph formed for the happy graph colouring problem.
c DESCRIPTION It was generated using the problem generator of Rhyd Lewis
c
c GRAPH STATS
c Seed                             = -1226307065
c Number of Nodes                  = 100
c Number of colours k              = 4
c Number of pre-assignments        = 30
c Degree of all vertices           = 6
c Density                          = 0.0606061
c 
c The degrees of nodes 1 to 100, respectively, are as follows 
c [6, 6, 6, 6, 6, 6, 6, 6, 6, 6, 6, 6, 6, 6, 6, 6, 6, 6, 6, 6, 6, 6, 6, 6, 6, 6, 
c  6, 6, 6, 6, 6, 6, 6, 6, 6, 6, 6, 6, 6, 6, 6, 6, 6, 6, 6, 6, 6, 6, 6, 6, 6, 
c  6, 6, 6, 6, 6, 6, 6, 6, 6, 6, 6, 6, 6, 6, 6, 6, 6, 6, 6, 6, 6, 6, 6, 6, 6, 
c  6, 6, 6, 6, 6, 6, 6, 6, 6, 6, 6, 6, 6, 6, 6, 6, 6, 6, 6, 6, 6, 6, 6, 6] 
c  
p edge 100 300 4
e 1 49
e 1 62
e 1 66
e 1 68
e 1 91
e 1 98
e 2 50
e 2 52
e 2 76
e 2 83
e 2 88
e 2 91
e 3 30
e 3 52
e 3 63
e 3 64
e 3 80
e 3 89
e 4 5
e 4 9
e 4 22
e 4 28
e 4 61
e 4 80
e 5 6
e 5 39
e 5 49
e 5 63
e 5 73
e 6 16
e 6 19
e 6 32
e 6 40
e 6 72
e 7 18
e 7 42
e 7 55
e 7 69
e 7 82
e 7 99
e 8 13
e 8 36
e 8 38
e 8 58
e 8 60
e 8 94
e 9 10
e 9 22
e 9 23
e 9 64
e 9 87
e 10 22
e 10 26
e 10 41
e 10 67
e 10 91
e 11 13
e 11 16
e 11 56
e 11 68
e 11 78
e 11 89
e 12 13
e 12 23
e 12 29
e 12 70
e 12 82
e 12 93
e 13 46
e 13 76
e 13 86
e 14 38
e 14 62
e 14 63
e 14 90
e 14 95
e 14 99
e 15 27
e 15 36
e 15 47
e 15 82
e 15 88
e 15 92
e 16 43
e 16 52
e 16 56
e 16 99
e 17 46
e 17 62
e 17 64
e 17 80
e 17 86
e 17 92
e 18 29
e 18 33
e 18 37
e 18 40
e 18 91
e 19 23
e 19 31
e 19 36
e 19 58
e 19 81
e 20 39
e 20 40
e 20 59
e 20 60
e 20 89
e 20 94
e 21 35
e 21 39
e 21 41
e 21 51
e 21 54
e 21 60
e 22 40
e 22 74
e 22 90
e 23 25
e 23 30
e 23 45
e 24 27
e 24 32
e 24 36
e 24 50
e 24 65
e 24 78
e 25 40
e 25 48
e 25 55
e 25 66
e 25 90
e 26 56
e 26 61
e 26 62
e 26 83
e 26 96
e 27 35
e 27 44
e 27 45
e 27 48
e 28 57
e 28 65
e 28 68
e 28 73
e 28 79
e 29 55
e 29 72
e 29 79
e 29 93
e 30 35
e 30 49
e 30 80
e 30 97
e 31 34
e 31 46
e 31 52
e 31 71
e 31 92
e 32 44
e 32 60
e 32 64
e 32 96
e 33 37
e 33 40
e 33 47
e 33 67
e 33 94
e 34 51
e 34 68
e 34 69
e 34 77
e 34 89
e 35 36
e 35 42
e 35 92
e 36 63
e 37 46
e 37 50
e 37 90
e 37 97
e 38 42
e 38 55
e 38 88
e 38 92
e 39 44
e 39 52
e 39 96
e 41 43
e 41 65
e 41 83
e 41 89
e 42 54
e 42 57
e 42 74
e 43 57
e 43 58
e 43 67
e 43 87
e 44 86
e 44 88
e 44 93
e 45 79
e 45 88
e 45 98
e 45 100
e 46 82
e 46 92
e 47 55
e 47 74
e 47 84
e 47 91
e 48 51
e 48 53
e 48 75
e 48 96
e 49 79
e 49 85
e 49 93
e 50 68
e 50 72
e 50 99
e 51 69
e 51 73
e 51 96
e 52 85
e 53 62
e 53 63
e 53 94
e 53 95
e 53 100
e 54 56
e 54 66
e 54 77
e 54 98
e 55 71
e 56 61
e 56 95
e 57 60
e 57 66
e 57 95
e 58 65
e 58 73
e 58 85
e 59 71
e 59 73
e 59 77
e 59 83
e 59 87
e 60 67
e 61 66
e 61 79
e 61 87
e 62 87
e 63 98
e 64 76
e 64 84
e 65 75
e 65 85
e 66 97
e 67 81
e 67 95
e 68 88
e 69 74
e 69 81
e 69 90
e 70 72
e 70 75
e 70 84
e 70 89
e 70 100
e 71 73
e 71 94
e 71 100
e 72 85
e 72 86
e 74 81
e 74 100
e 75 78
e 75 84
e 75 91
e 76 77
e 76 78
e 76 81
e 77 82
e 77 83
e 78 80
e 78 84
e 79 84
e 80 82
e 81 97
e 83 97
e 85 98
e 86 95
e 86 99
e 87 93
e 90 100
e 93 97
e 94 99
e 96 98
n 1 3
n 10 2
n 11 4
n 18 2
n 20 4
n 24 1
n 25 2
n 28 4
n 30 3
n 31 2
n 32 1
n 37 2
n 42 4
n 45 4
n 46 2
n 47 2
n 49 3
n 55 2
n 58 3
n 63 2
n 64 1
n 72 3
n 75 3
n 76 1
n 80 3
n 86 3
n 89 4
n 93 3
n 95 3
n 100 4
